(set-logic QF_FPABV)
(declare-fun b1116 () (_ FP 11 53))
(declare-fun b1111 () (_ FP 11 53))
(declare-fun b1398 () (_ FP 11 53))
(declare-fun b192 () (_ FP 11 53))
(declare-fun b1208 () (_ FP 11 53))
(declare-fun b1367 () (_ FP 11 53))
(declare-fun b1142 () (_ FP 11 53))
(declare-fun b1403 () (_ FP 11 53))
(declare-fun b1300 () (_ FP 11 53))
(declare-fun b1270 () (_ FP 11 53))
(declare-fun b1275 () (_ FP 11 53))
(declare-fun b1336 () (_ FP 11 53))
(declare-fun b553 () (_ FP 11 53))
(declare-fun b1172 () (_ FP 11 53))
(declare-fun b238 () (_ FP 11 53))
(declare-fun b1239 () (_ FP 11 53))
(declare-fun b1218 () (_ FP 11 53))
(declare-fun b1346 () (_ FP 11 53))
(declare-fun b235 () (_ FP 11 53))
(declare-fun b1147 () (_ FP 11 53))
(declare-fun b1428 () (_ FP 11 53))
(declare-fun b1228 () (_ FP 11 53))
(declare-fun b1474 () (_ FP 11 53))
(declare-fun b1100 () (_ FP 11 53))
(declare-fun b226 () (_ FP 11 53))
(declare-fun b1372 () (_ FP 11 53))
(declare-fun b1356 () (_ FP 11 53))
(declare-fun b1464 () (_ FP 11 53))
(declare-fun b1244 () (_ FP 11 53))
(declare-fun b204 () (_ FP 11 53))
(define-fun .3 () RoundingMode roundNearestTiesToEven)
(define-fun .9 () (_ FP 11 53) b1100)
(define-fun .10 () (_ FP 11 53) b226)
(define-fun .11 () (_ FP 11 53) (* .3 .9 .10))
(define-fun .12 () (_ FP 11 53) (* .3 .9 .9))
(define-fun .13 () (_ FP 11 53) (- .12))
(define-fun .14 () (_ FP 11 53) b553)
(define-fun .15 () (_ FP 11 53) (+ .3 .13 .14))
(define-fun .16 () (_ FP 11 53) (/ .3 .15 .11))
(define-fun .17 () (_ FP 11 53) (+ .3 .9 .16))
(define-fun .18 () (_ FP 11 53) (* .3 .17 .17))
(define-fun .19 () (_ FP 11 53) (- .18))
(define-fun .20 () (_ FP 11 53) (+ .3 .14 .19))
(define-fun .21 () (_ FP 11 53) b1111)
(define-fun .22 () Bool (= .20 .21))
(define-fun .23 () Bool (not .22))
(define-fun .24 () (_ FP 11 53) b1116)
(define-fun .25 () (_ FP 11 53) (* .3 .10 .24))
(define-fun .26 () (_ FP 11 53) (* .3 .24 .24))
(define-fun .27 () (_ FP 11 53) (- .26))
(define-fun .28 () (_ FP 11 53) (+ .3 .14 .27))
(define-fun .29 () (_ FP 11 53) (/ .3 .28 .25))
(define-fun .30 () (_ FP 11 53) (+ .3 .24 .29))
(define-fun .31 () Bool (= .9 .30))
(define-fun .32 () Bool (not .31))
(define-fun .33 () (_ FP 11 53) (* .3 .30 .30))
(define-fun .34 () (_ FP 11 53) (- .33))
(define-fun .35 () (_ FP 11 53) (+ .3 .14 .34))
(define-fun .36 () (_ FP 11 53) b1142)
(define-fun .37 () Bool (= .35 .36))
(define-fun .38 () Bool (not .37))
(define-fun .39 () (_ FP 11 53) b1147)
(define-fun .40 () (_ FP 11 53) (* .3 .10 .39))
(define-fun .41 () (_ FP 11 53) (* .3 .39 .39))
(define-fun .42 () (_ FP 11 53) (- .41))
(define-fun .43 () (_ FP 11 53) (+ .3 .14 .42))
(define-fun .44 () (_ FP 11 53) (/ .3 .43 .40))
(define-fun .45 () (_ FP 11 53) (+ .3 .39 .44))
(define-fun .46 () Bool (= .24 .45))
(define-fun .47 () Bool (not .46))
(define-fun .48 () (_ FP 11 53) (* .3 .45 .45))
(define-fun .49 () (_ FP 11 53) (- .48))
(define-fun .50 () (_ FP 11 53) (+ .3 .14 .49))
(define-fun .51 () (_ FP 11 53) b1172)
(define-fun .52 () Bool (= .50 .51))
(define-fun .53 () Bool (not .52))
(define-fun .54 () (_ FP 11 53) b235)
(define-fun .55 () (_ FP 11 53) (/ .3 .14 .54))
(define-fun .56 () (_ FP 11 53) (* .3 .10 .55))
(define-fun .57 () (_ FP 11 53) (* .3 .55 .55))
(define-fun .58 () (_ FP 11 53) (- .57))
(define-fun .59 () (_ FP 11 53) (+ .3 .14 .58))
(define-fun .60 () (_ FP 11 53) (/ .3 .59 .56))
(define-fun .61 () (_ FP 11 53) (+ .3 .55 .60))
(define-fun .62 () Bool (= .39 .61))
(define-fun .63 () Bool (not .62))
(define-fun .64 () (_ FP 11 53) (* .3 .10 .61))
(define-fun .65 () (_ FP 11 53) (* .3 .61 .61))
(define-fun .66 () (_ FP 11 53) (- .65))
(define-fun .67 () (_ FP 11 53) (+ .3 .14 .66))
(define-fun .68 () (_ FP 11 53) (/ .3 .67 .64))
(define-fun .69 () (_ FP 11 53) (+ .3 .61 .68))
(define-fun .70 () (_ FP 11 53) (* .3 .69 .69))
(define-fun .71 () (_ FP 11 53) (- .70))
(define-fun .72 () (_ FP 11 53) (+ .3 .14 .71))
(define-fun .73 () (_ FP 11 53) b1208)
(define-fun .74 () Bool (= .72 .73))
(define-fun .75 () Bool (not .74))
(define-fun .76 () (_ FP 11 53) b1218)
(define-fun .77 () Bool (= .67 .76))
(define-fun .78 () Bool (not .77))
(define-fun .79 () (_ FP 11 53) b1228)
(define-fun .80 () (_ FP 11 53) (* .3 .10 .79))
(define-fun .81 () (_ FP 11 53) (* .3 .79 .79))
(define-fun .82 () (_ FP 11 53) (- .81))
(define-fun .83 () (_ FP 11 53) b192)
(define-fun .84 () (_ FP 11 53) (+ .3 .82 .83))
(define-fun .85 () (_ FP 11 53) (/ .3 .84 .80))
(define-fun .86 () (_ FP 11 53) (+ .3 .79 .85))
(define-fun .87 () (_ FP 11 53) (* .3 .86 .86))
(define-fun .88 () (_ FP 11 53) (- .87))
(define-fun .89 () (_ FP 11 53) (+ .3 .83 .88))
(define-fun .90 () (_ FP 11 53) b1239)
(define-fun .91 () Bool (= .89 .90))
(define-fun .92 () Bool (not .91))
(define-fun .93 () (_ FP 11 53) b1244)
(define-fun .94 () (_ FP 11 53) (* .3 .10 .93))
(define-fun .95 () (_ FP 11 53) (* .3 .93 .93))
(define-fun .96 () (_ FP 11 53) (- .95))
(define-fun .97 () (_ FP 11 53) (+ .3 .83 .96))
(define-fun .98 () (_ FP 11 53) (/ .3 .97 .94))
(define-fun .99 () (_ FP 11 53) (+ .3 .93 .98))
(define-fun .100 () Bool (= .79 .99))
(define-fun .101 () Bool (not .100))
(define-fun .102 () (_ FP 11 53) (* .3 .99 .99))
(define-fun .103 () (_ FP 11 53) (- .102))
(define-fun .104 () (_ FP 11 53) (+ .3 .83 .103))
(define-fun .105 () (_ FP 11 53) b1270)
(define-fun .106 () Bool (= .104 .105))
(define-fun .107 () Bool (not .106))
(define-fun .108 () (_ FP 11 53) b1275)
(define-fun .109 () (_ FP 11 53) (* .3 .10 .108))
(define-fun .110 () (_ FP 11 53) (* .3 .108 .108))
(define-fun .111 () (_ FP 11 53) (- .110))
(define-fun .112 () (_ FP 11 53) (+ .3 .83 .111))
(define-fun .113 () (_ FP 11 53) (/ .3 .112 .109))
(define-fun .114 () (_ FP 11 53) (+ .3 .108 .113))
(define-fun .115 () Bool (= .93 .114))
(define-fun .116 () Bool (not .115))
(define-fun .117 () (_ FP 11 53) (* .3 .114 .114))
(define-fun .118 () (_ FP 11 53) (- .117))
(define-fun .119 () (_ FP 11 53) (+ .3 .83 .118))
(define-fun .120 () (_ FP 11 53) b1300)
(define-fun .121 () Bool (= .119 .120))
(define-fun .122 () Bool (not .121))
(define-fun .123 () (_ FP 11 53) (/ .3 .83 .54))
(define-fun .124 () (_ FP 11 53) (* .3 .10 .123))
(define-fun .125 () (_ FP 11 53) (* .3 .123 .123))
(define-fun .126 () (_ FP 11 53) (- .125))
(define-fun .127 () (_ FP 11 53) (+ .3 .83 .126))
(define-fun .128 () (_ FP 11 53) (/ .3 .127 .124))
(define-fun .129 () (_ FP 11 53) (+ .3 .123 .128))
(define-fun .130 () Bool (= .108 .129))
(define-fun .131 () Bool (not .130))
(define-fun .132 () (_ FP 11 53) (* .3 .10 .129))
(define-fun .133 () (_ FP 11 53) (* .3 .129 .129))
(define-fun .134 () (_ FP 11 53) (- .133))
(define-fun .135 () (_ FP 11 53) (+ .3 .83 .134))
(define-fun .136 () (_ FP 11 53) (/ .3 .135 .132))
(define-fun .137 () (_ FP 11 53) (+ .3 .129 .136))
(define-fun .138 () (_ FP 11 53) (* .3 .137 .137))
(define-fun .139 () (_ FP 11 53) (- .138))
(define-fun .140 () (_ FP 11 53) (+ .3 .83 .139))
(define-fun .141 () (_ FP 11 53) b1336)
(define-fun .142 () Bool (= .140 .141))
(define-fun .143 () Bool (not .142))
(define-fun .144 () (_ FP 11 53) b1346)
(define-fun .145 () Bool (= .135 .144))
(define-fun .146 () Bool (not .145))
(define-fun .147 () (_ FP 11 53) b1356)
(define-fun .148 () (_ FP 11 53) (* .3 .10 .147))
(define-fun .149 () (_ FP 11 53) (* .3 .147 .147))
(define-fun .150 () (_ FP 11 53) (- .149))
(define-fun .151 () (_ FP 11 53) b204)
(define-fun .152 () (_ FP 11 53) (+ .3 .150 .151))
(define-fun .153 () (_ FP 11 53) (/ .3 .152 .148))
(define-fun .154 () (_ FP 11 53) (+ .3 .147 .153))
(define-fun .155 () (_ FP 11 53) (* .3 .154 .154))
(define-fun .156 () (_ FP 11 53) (- .155))
(define-fun .157 () (_ FP 11 53) (+ .3 .151 .156))
(define-fun .158 () (_ FP 11 53) b1367)
(define-fun .159 () Bool (= .157 .158))
(define-fun .160 () Bool (not .159))
(define-fun .161 () (_ FP 11 53) b1372)
(define-fun .162 () (_ FP 11 53) (* .3 .10 .161))
(define-fun .163 () (_ FP 11 53) (* .3 .161 .161))
(define-fun .164 () (_ FP 11 53) (- .163))
(define-fun .165 () (_ FP 11 53) (+ .3 .151 .164))
(define-fun .166 () (_ FP 11 53) (/ .3 .165 .162))
(define-fun .167 () (_ FP 11 53) (+ .3 .161 .166))
(define-fun .168 () Bool (= .147 .167))
(define-fun .169 () Bool (not .168))
(define-fun .170 () (_ FP 11 53) (* .3 .167 .167))
(define-fun .171 () (_ FP 11 53) (- .170))
(define-fun .172 () (_ FP 11 53) (+ .3 .151 .171))
(define-fun .173 () (_ FP 11 53) b1398)
(define-fun .174 () Bool (= .172 .173))
(define-fun .175 () Bool (not .174))
(define-fun .176 () (_ FP 11 53) b1403)
(define-fun .177 () (_ FP 11 53) (* .3 .10 .176))
(define-fun .178 () (_ FP 11 53) (* .3 .176 .176))
(define-fun .179 () (_ FP 11 53) (- .178))
(define-fun .180 () (_ FP 11 53) (+ .3 .151 .179))
(define-fun .181 () (_ FP 11 53) (/ .3 .180 .177))
(define-fun .182 () (_ FP 11 53) (+ .3 .176 .181))
(define-fun .183 () Bool (= .161 .182))
(define-fun .184 () Bool (not .183))
(define-fun .185 () (_ FP 11 53) (* .3 .182 .182))
(define-fun .186 () (_ FP 11 53) (- .185))
(define-fun .187 () (_ FP 11 53) (+ .3 .151 .186))
(define-fun .188 () (_ FP 11 53) b1428)
(define-fun .189 () Bool (= .187 .188))
(define-fun .190 () Bool (not .189))
(define-fun .191 () (_ FP 11 53) (/ .3 .151 .54))
(define-fun .192 () (_ FP 11 53) (* .3 .10 .191))
(define-fun .193 () (_ FP 11 53) (* .3 .191 .191))
(define-fun .194 () (_ FP 11 53) (- .193))
(define-fun .195 () (_ FP 11 53) (+ .3 .151 .194))
(define-fun .196 () (_ FP 11 53) (/ .3 .195 .192))
(define-fun .197 () (_ FP 11 53) (+ .3 .191 .196))
(define-fun .198 () Bool (= .176 .197))
(define-fun .199 () Bool (not .198))
(define-fun .200 () (_ FP 11 53) (* .3 .10 .197))
(define-fun .201 () (_ FP 11 53) (* .3 .197 .197))
(define-fun .202 () (_ FP 11 53) (- .201))
(define-fun .203 () (_ FP 11 53) (+ .3 .151 .202))
(define-fun .204 () (_ FP 11 53) (/ .3 .203 .200))
(define-fun .205 () (_ FP 11 53) (+ .3 .197 .204))
(define-fun .206 () (_ FP 11 53) (* .3 .205 .205))
(define-fun .207 () (_ FP 11 53) (- .206))
(define-fun .208 () (_ FP 11 53) (+ .3 .151 .207))
(define-fun .209 () (_ FP 11 53) b1464)
(define-fun .210 () Bool (= .208 .209))
(define-fun .211 () Bool (not .210))
(define-fun .212 () (_ FP 11 53) b1474)
(define-fun .213 () Bool (= .203 .212))
(define-fun .214 () Bool (not .213))
(define-fun .215 () Bool (== .83 .83))
(define-fun .216 () Bool (not .215))
(define-fun .217 () Bool (== .83 .151))
(define-fun .218 () Bool (not .217))
(define-fun .219 () Bool (and .216 .218))
(define-fun .220 () Bool (== .14 .83))
(define-fun .221 () Bool (not .220))
(define-fun .222 () Bool (and .219 .221))
(define-fun .223 () Bool (<= .83 .203))
(define-fun .224 () Bool (not .223))
(define-fun .225 () Bool (and .222 .224))
(define-fun .226 () (_ FP 11 53) (- .203))
(define-fun .227 () Bool (= .212 .226))
(define-fun .228 () Bool (and .225 .227))
(define-fun .229 () Bool (and .214 .228))
(define-fun .230 () (_ FP 11 53) b238)
(define-fun .231 () Bool (<= .212 .230))
(define-fun .232 () Bool (not .231))
(define-fun .233 () Bool (and .229 .232))
(define-fun .234 () Bool (= .176 .205))
(define-fun .235 () Bool (and .233 .234))
(define-fun .236 () Bool (<= .83 .208))
(define-fun .237 () Bool (not .236))
(define-fun .238 () Bool (and .235 .237))
(define-fun .239 () (_ FP 11 53) (- .208))
(define-fun .240 () Bool (= .209 .239))
(define-fun .241 () Bool (and .238 .240))
(define-fun .242 () Bool (and .211 .241))
(define-fun .243 () Bool (<= .209 .230))
(define-fun .244 () Bool (not .243))
(define-fun .245 () Bool (and .242 .244))
(define-fun .246 () Bool (and .199 .245))
(define-fun .247 () Bool (<= .83 .187))
(define-fun .248 () Bool (not .247))
(define-fun .249 () Bool (and .246 .248))
(define-fun .250 () (_ FP 11 53) (- .187))
(define-fun .251 () Bool (= .188 .250))
(define-fun .252 () Bool (and .249 .251))
(define-fun .253 () Bool (and .190 .252))
(define-fun .254 () Bool (= .161 .176))
(define-fun .255 () Bool (and .253 .254))
(define-fun .256 () Bool (<= .188 .230))
(define-fun .257 () Bool (not .256))
(define-fun .258 () Bool (and .255 .257))
(define-fun .259 () Bool (and .184 .258))
(define-fun .260 () Bool (<= .83 .172))
(define-fun .261 () Bool (not .260))
(define-fun .262 () Bool (and .259 .261))
(define-fun .263 () (_ FP 11 53) (- .172))
(define-fun .264 () Bool (= .173 .263))
(define-fun .265 () Bool (and .262 .264))
(define-fun .266 () Bool (and .175 .265))
(define-fun .267 () Bool (= .147 .161))
(define-fun .268 () Bool (and .266 .267))
(define-fun .269 () Bool (and .169 .268))
(define-fun .270 () Bool (<= .173 .230))
(define-fun .271 () Bool (not .270))
(define-fun .272 () Bool (and .269 .271))
(define-fun .273 () Bool (<= .83 .157))
(define-fun .274 () Bool (not .273))
(define-fun .275 () Bool (and .272 .274))
(define-fun .276 () (_ FP 11 53) (- .157))
(define-fun .277 () Bool (= .158 .276))
(define-fun .278 () Bool (and .275 .277))
(define-fun .279 () Bool (and .160 .278))
(define-fun .280 () Bool (<= .83 .135))
(define-fun .281 () Bool (not .280))
(define-fun .282 () Bool (and .279 .281))
(define-fun .283 () (_ FP 11 53) (- .135))
(define-fun .284 () Bool (= .144 .283))
(define-fun .285 () Bool (and .282 .284))
(define-fun .286 () Bool (and .146 .285))
(define-fun .287 () Bool (<= .144 .230))
(define-fun .288 () Bool (not .287))
(define-fun .289 () Bool (and .286 .288))
(define-fun .290 () Bool (= .108 .137))
(define-fun .291 () Bool (and .289 .290))
(define-fun .292 () Bool (<= .83 .140))
(define-fun .293 () Bool (not .292))
(define-fun .294 () Bool (and .291 .293))
(define-fun .295 () (_ FP 11 53) (- .140))
(define-fun .296 () Bool (= .141 .295))
(define-fun .297 () Bool (and .294 .296))
(define-fun .298 () Bool (and .143 .297))
(define-fun .299 () Bool (<= .141 .230))
(define-fun .300 () Bool (not .299))
(define-fun .301 () Bool (and .298 .300))
(define-fun .302 () Bool (and .131 .301))
(define-fun .303 () Bool (<= .83 .119))
(define-fun .304 () Bool (not .303))
(define-fun .305 () Bool (and .302 .304))
(define-fun .306 () (_ FP 11 53) (- .119))
(define-fun .307 () Bool (= .120 .306))
(define-fun .308 () Bool (and .305 .307))
(define-fun .309 () Bool (and .122 .308))
(define-fun .310 () Bool (= .93 .108))
(define-fun .311 () Bool (and .309 .310))
(define-fun .312 () Bool (<= .120 .230))
(define-fun .313 () Bool (not .312))
(define-fun .314 () Bool (and .311 .313))
(define-fun .315 () Bool (and .116 .314))
(define-fun .316 () Bool (<= .83 .104))
(define-fun .317 () Bool (not .316))
(define-fun .318 () Bool (and .315 .317))
(define-fun .319 () (_ FP 11 53) (- .104))
(define-fun .320 () Bool (= .105 .319))
(define-fun .321 () Bool (and .318 .320))
(define-fun .322 () Bool (and .107 .321))
(define-fun .323 () Bool (= .79 .93))
(define-fun .324 () Bool (and .322 .323))
(define-fun .325 () Bool (and .101 .324))
(define-fun .326 () Bool (<= .105 .230))
(define-fun .327 () Bool (not .326))
(define-fun .328 () Bool (and .325 .327))
(define-fun .329 () Bool (<= .83 .89))
(define-fun .330 () Bool (not .329))
(define-fun .331 () Bool (and .328 .330))
(define-fun .332 () (_ FP 11 53) (- .89))
(define-fun .333 () Bool (= .90 .332))
(define-fun .334 () Bool (and .331 .333))
(define-fun .335 () Bool (and .92 .334))
(define-fun .336 () Bool (<= .83 .67))
(define-fun .337 () Bool (not .336))
(define-fun .338 () Bool (and .335 .337))
(define-fun .339 () (_ FP 11 53) (- .67))
(define-fun .340 () Bool (= .76 .339))
(define-fun .341 () Bool (and .338 .340))
(define-fun .342 () Bool (and .78 .341))
(define-fun .343 () Bool (<= .76 .230))
(define-fun .344 () Bool (not .343))
(define-fun .345 () Bool (and .342 .344))
(define-fun .346 () Bool (= .39 .69))
(define-fun .347 () Bool (and .345 .346))
(define-fun .348 () Bool (<= .83 .72))
(define-fun .349 () Bool (not .348))
(define-fun .350 () Bool (and .347 .349))
(define-fun .351 () (_ FP 11 53) (- .72))
(define-fun .352 () Bool (= .73 .351))
(define-fun .353 () Bool (and .350 .352))
(define-fun .354 () Bool (and .75 .353))
(define-fun .355 () Bool (<= .73 .230))
(define-fun .356 () Bool (not .355))
(define-fun .357 () Bool (and .354 .356))
(define-fun .358 () Bool (and .63 .357))
(define-fun .359 () Bool (<= .83 .50))
(define-fun .360 () Bool (not .359))
(define-fun .361 () Bool (and .358 .360))
(define-fun .362 () (_ FP 11 53) (- .50))
(define-fun .363 () Bool (= .51 .362))
(define-fun .364 () Bool (and .361 .363))
(define-fun .365 () Bool (and .53 .364))
(define-fun .366 () Bool (= .24 .39))
(define-fun .367 () Bool (and .365 .366))
(define-fun .368 () Bool (<= .51 .230))
(define-fun .369 () Bool (not .368))
(define-fun .370 () Bool (and .367 .369))
(define-fun .371 () Bool (and .47 .370))
(define-fun .372 () Bool (<= .83 .35))
(define-fun .373 () Bool (not .372))
(define-fun .374 () Bool (and .371 .373))
(define-fun .375 () (_ FP 11 53) (- .35))
(define-fun .376 () Bool (= .36 .375))
(define-fun .377 () Bool (and .374 .376))
(define-fun .378 () Bool (and .38 .377))
(define-fun .379 () Bool (= .9 .24))
(define-fun .380 () Bool (and .378 .379))
(define-fun .381 () Bool (and .32 .380))
(define-fun .382 () Bool (<= .36 .230))
(define-fun .383 () Bool (not .382))
(define-fun .384 () Bool (and .381 .383))
(define-fun .385 () Bool (<= .83 .20))
(define-fun .386 () Bool (not .385))
(define-fun .387 () Bool (and .384 .386))
(define-fun .388 () (_ FP 11 53) (- .20))
(define-fun .389 () Bool (= .21 .388))
(define-fun .390 () Bool (and .387 .389))
(define-fun .391 () Bool (and .23 .390))
(assert .391)
(check-sat)
